c FILE /home/rafael/Documents/HappySet/MIHS/inputs/happygen/output/graph_scale_free_k5_p0.1_v50_20241127_082436.txt
c SOURCE This is a scale-free graph formed for the happy graph colouring problem.
c DESCRIPTION It was generated using the problem generator of Rhyd Lewis
c
c GRAPH STATS
c Seed                             = -581090950
c Number of Nodes                  = 50
c Number of colours k              = 5
c Number of pre-assignments        = 5
c Number of links per new node     = 5
c Density                          = 0.191837
c 
c The degrees of nodes 1 to 50, respectively, are as follows 
c [25, 24, 22, 20, 18, 16, 16, 15, 15, 14, 12, 12, 11, 10, 10, 9, 9, 9, 9, 9, 8, 8, 8, 8, 8, 8, 
c  7, 7, 7, 7, 6, 6, 6, 6, 6, 6, 6, 6, 6, 5, 5, 5, 5, 5, 5, 5, 5, 5, 5, 5] 
c  
p edge 50 235 5
e 1 2
e 1 3
e 1 4
e 1 5
e 1 6
e 1 7
e 1 8
e 1 10
e 1 13
e 1 14
e 1 16
e 1 24
e 1 25
e 1 28
e 1 30
e 1 31
e 1 32
e 1 33
e 1 34
e 1 35
e 1 36
e 1 39
e 1 44
e 1 47
e 1 49
e 2 3
e 2 4
e 2 5
e 2 6
e 2 7
e 2 8
e 2 9
e 2 10
e 2 13
e 2 14
e 2 18
e 2 19
e 2 21
e 2 24
e 2 25
e 2 27
e 2 30
e 2 31
e 2 38
e 2 39
e 2 40
e 2 41
e 2 45
e 3 4
e 3 5
e 3 6
e 3 7
e 3 8
e 3 10
e 3 11
e 3 13
e 3 14
e 3 15
e 3 16
e 3 20
e 3 21
e 3 26
e 3 27
e 3 29
e 3 31
e 3 32
e 3 33
e 3 44
e 4 6
e 4 8
e 4 10
e 4 14
e 4 15
e 4 16
e 4 18
e 4 22
e 4 24
e 4 26
e 4 29
e 4 30
e 4 33
e 4 38
e 4 40
e 4 43
e 4 45
e 5 8
e 5 9
e 5 10
e 5 12
e 5 14
e 5 18
e 5 21
e 5 22
e 5 23
e 5 25
e 5 30
e 5 32
e 5 34
e 5 38
e 5 47
e 6 7
e 6 9
e 6 11
e 6 14
e 6 21
e 6 25
e 6 28
e 6 29
e 6 36
e 6 41
e 6 44
e 6 48
e 7 10
e 7 11
e 7 12
e 7 13
e 7 16
e 7 19
e 7 20
e 7 22
e 7 23
e 7 31
e 7 42
e 7 50
e 8 9
e 8 11
e 8 12
e 8 13
e 8 17
e 8 19
e 8 25
e 8 26
e 8 40
e 8 45
e 9 10
e 9 11
e 9 15
e 9 19
e 9 21
e 9 31
e 9 32
e 9 33
e 9 41
e 9 49
e 9 50
e 10 14
e 10 15
e 10 17
e 10 20
e 10 23
e 10 27
e 10 42
e 11 12
e 11 15
e 11 20
e 11 35
e 11 42
e 11 43
e 11 46
e 12 14
e 12 18
e 12 26
e 12 27
e 12 28
e 12 34
e 12 45
e 12 48
e 13 17
e 13 19
e 13 28
e 13 36
e 13 40
e 13 46
e 14 16
e 14 34
e 15 20
e 15 24
e 15 27
e 15 42
e 15 44
e 16 17
e 16 18
e 16 35
e 16 36
e 17 21
e 17 22
e 17 23
e 17 37
e 17 49
e 18 23
e 18 24
e 18 35
e 18 38
e 19 32
e 19 36
e 19 39
e 19 41
e 20 28
e 20 43
e 20 46
e 20 47
e 21 26
e 21 29
e 22 27
e 22 37
e 22 38
e 22 48
e 23 33
e 23 37
e 23 39
e 24 29
e 24 35
e 24 43
e 25 42
e 25 46
e 25 48
e 26 37
e 26 48
e 26 50
e 27 34
e 28 45
e 28 49
e 29 46
e 29 47
e 30 32
e 30 39
e 30 49
e 31 40
e 33 41
e 34 37
e 35 43
e 36 44
e 37 47
e 38 50
e 39 50
n 4 1
n 20 3
n 25 4
n 34 2
n 36 5
